NAME : 0
COMMENT : CVRP Instance
TYPE : CVRP
DIMENSION : 801
EDGE_WEIGHT_TYPE : EUC_2D
CAPACITY : 20
NODE_COORD_SECTION
1	0.0	0.0
2	674.0	825.0
3	549.0	534.0
4	43.0	315.0
5	542.0	420.0
6	45.0	580.0
7	180.0	450.0
8	369.0	618.0
9	287.0	721.0
10	36.0	426.0
11	680.0	338.0
12	42.0	81.0
13	942.0	119.0
14	247.0	68.0
15	432.0	549.0
16	514.0	857.0
17	554.0	976.0
18	103.0	728.0
19	271.0	73.0
20	310.0	859.0
21	874.0	538.0
22	358.0	642.0
23	989.0	42.0
24	538.0	271.0
25	854.0	443.0
26	596.0	563.0
27	827.0	228.0
28	380.0	40.0
29	152.0	224.0
30	726.0	258.0
31	981.0	544.0
32	600.0	381.0
33	629.0	799.0
34	488.0	12.0
35	100.0	542.0
36	37.0	272.0
37	847.0	980.0
38	949.0	124.0
39	787.0	917.0
40	111.0	958.0
41	571.0	968.0
42	2.0	409.0
43	95.0	2.0
44	318.0	447.0
45	271.0	856.0
46	873.0	697.0
47	34.0	274.0
48	733.0	17.0
49	620.0	125.0
50	611.0	334.0
51	66.0	848.0
52	507.0	711.0
53	993.0	152.0
54	596.0	683.0
55	605.0	980.0
56	372.0	833.0
57	968.0	699.0
58	36.0	620.0
59	518.0	566.0
60	138.0	457.0
61	828.0	421.0
62	467.0	39.0
63	626.0	645.0
64	192.0	923.0
65	56.0	363.0
66	252.0	349.0
67	202.0	896.0
68	999.0	331.0
69	843.0	462.0
70	83.0	975.0
71	475.0	135.0
72	601.0	55.0
73	578.0	43.0
74	480.0	854.0
75	124.0	825.0
76	121.0	228.0
77	355.0	326.0
78	291.0	944.0
79	784.0	563.0
80	260.0	251.0
81	472.0	918.0
82	193.0	715.0
83	539.0	592.0
84	794.0	290.0
85	930.0	315.0
86	190.0	654.0
87	429.0	292.0
88	79.0	779.0
89	931.0	409.0
90	114.0	765.0
91	948.0	685.0
92	550.0	915.0
93	383.0	979.0
94	127.0	64.0
95	541.0	935.0
96	218.0	159.0
97	396.0	194.0
98	216.0	85.0
99	106.0	843.0
100	174.0	744.0
101	782.0	117.0
102	699.0	379.0
103	497.0	355.0
104	87.0	161.0
105	558.0	199.0
106	721.0	10.0
107	18.0	53.0
108	704.0	674.0
109	443.0	783.0
110	755.0	58.0
111	928.0	666.0
112	347.0	805.0
113	360.0	600.0
114	101.0	119.0
115	938.0	556.0
116	422.0	848.0
117	934.0	275.0
118	391.0	807.0
119	712.0	230.0
120	908.0	359.0
121	992.0	823.0
122	80.0	246.0
123	367.0	837.0
124	865.0	661.0
125	67.0	146.0
126	956.0	582.0
127	977.0	663.0
128	930.0	343.0
129	896.0	542.0
130	631.0	472.0
131	62.0	636.0
132	817.0	759.0
133	914.0	195.0
134	46.0	591.0
135	102.0	825.0
136	822.0	527.0
137	763.0	684.0
138	975.0	128.0
139	26.0	941.0
140	314.0	34.0
141	787.0	474.0
142	512.0	291.0
143	718.0	832.0
144	244.0	931.0
145	534.0	425.0
146	585.0	799.0
147	513.0	990.0
148	641.0	633.0
149	254.0	283.0
150	448.0	389.0
151	702.0	44.0
152	109.0	823.0
153	402.0	190.0
154	184.0	314.0
155	26.0	270.0
156	333.0	949.0
157	132.0	174.0
158	203.0	842.0
159	182.0	78.0
160	575.0	723.0
161	807.0	656.0
162	745.0	757.0
163	320.0	523.0
164	175.0	626.0
165	488.0	947.0
166	376.0	858.0
167	540.0	797.0
168	52.0	401.0
169	441.0	748.0
170	491.0	459.0
171	398.0	734.0
172	202.0	560.0
173	636.0	652.0
174	813.0	892.0
175	403.0	311.0
176	201.0	878.0
177	245.0	641.0
178	894.0	2.0
179	515.0	142.0
180	701.0	895.0
181	143.0	590.0
182	612.0	652.0
183	650.0	986.0
184	932.0	420.0
185	410.0	762.0
186	676.0	219.0
187	174.0	236.0
188	204.0	25.0
189	828.0	312.0
190	120.0	96.0
191	409.0	434.0
192	405.0	549.0
193	379.0	787.0
194	810.0	191.0
195	129.0	755.0
196	499.0	596.0
197	754.0	620.0
198	937.0	430.0
199	61.0	519.0
200	29.0	34.0
201	843.0	640.0
202	520.0	251.0
203	385.0	685.0
204	619.0	501.0
205	239.0	564.0
206	908.0	111.0
207	234.0	353.0
208	467.0	896.0
209	742.0	499.0
210	277.0	981.0
211	194.0	265.0
212	851.0	885.0
213	850.0	444.0
214	131.0	847.0
215	806.0	302.0
216	627.0	401.0
217	267.0	788.0
218	805.0	211.0
219	61.0	985.0
220	729.0	142.0
221	402.0	812.0
222	956.0	593.0
223	907.0	977.0
224	670.0	71.0
225	863.0	184.0
226	74.0	25.0
227	741.0	581.0
228	38.0	919.0
229	963.0	467.0
230	979.0	558.0
231	916.0	241.0
232	4.0	676.0
233	217.0	612.0
234	311.0	756.0
235	235.0	42.0
236	815.0	106.0
237	848.0	461.0
238	46.0	198.0
239	460.0	210.0
240	293.0	234.0
241	274.0	248.0
242	986.0	983.0
243	800.0	608.0
244	342.0	852.0
245	623.0	95.0
246	258.0	221.0
247	420.0	244.0
248	444.0	16.0
249	223.0	518.0
250	821.0	540.0
251	939.0	766.0
252	157.0	549.0
253	106.0	921.0
254	961.0	583.0
255	925.0	959.0
256	619.0	540.0
257	507.0	97.0
258	790.0	509.0
259	404.0	252.0
260	44.0	843.0
261	363.0	737.0
262	752.0	492.0
263	352.0	216.0
264	226.0	577.0
265	817.0	913.0
266	115.0	221.0
267	200.0	58.0
268	38.0	628.0
269	711.0	595.0
270	479.0	404.0
271	332.0	129.0
272	929.0	145.0
273	93.0	139.0
274	269.0	260.0
275	583.0	421.0
276	424.0	47.0
277	715.0	796.0
278	240.0	26.0
279	743.0	62.0
280	633.0	515.0
281	528.0	202.0
282	976.0	456.0
283	54.0	828.0
284	739.0	497.0
285	191.0	890.0
286	384.0	316.0
287	713.0	629.0
288	502.0	205.0
289	563.0	779.0
290	205.0	892.0
291	368.0	18.0
292	766.0	621.0
293	207.0	679.0
294	506.0	481.0
295	622.0	691.0
296	946.0	987.0
297	890.0	793.0
298	182.0	900.0
299	530.0	981.0
300	540.0	313.0
301	78.0	213.0
302	456.0	978.0
303	99.0	363.0
304	623.0	878.0
305	448.0	422.0
306	379.0	61.0
307	792.0	953.0
308	347.0	720.0
309	373.0	793.0
310	330.0	512.0
311	22.0	7.0
312	445.0	147.0
313	431.0	90.0
314	517.0	208.0
315	659.0	423.0
316	724.0	233.0
317	906.0	970.0
318	476.0	43.0
319	522.0	237.0
320	571.0	317.0
321	280.0	476.0
322	571.0	424.0
323	885.0	129.0
324	452.0	500.0
325	743.0	544.0
326	493.0	777.0
327	976.0	918.0
328	412.0	154.0
329	686.0	502.0
330	762.0	39.0
331	473.0	60.0
332	570.0	414.0
333	201.0	567.0
334	226.0	169.0
335	12.0	159.0
336	627.0	681.0
337	589.0	346.0
338	563.0	637.0
339	678.0	455.0
340	361.0	119.0
341	849.0	338.0
342	776.0	929.0
343	511.0	327.0
344	128.0	163.0
345	183.0	433.0
346	697.0	48.0
347	3.0	800.0
348	361.0	10.0
349	499.0	410.0
350	601.0	34.0
351	73.0	124.0
352	908.0	439.0
353	136.0	356.0
354	203.0	835.0
355	355.0	733.0
356	221.0	582.0
357	961.0	627.0
358	661.0	144.0
359	875.0	331.0
360	455.0	290.0
361	104.0	892.0
362	281.0	548.0
363	378.0	180.0
364	329.0	906.0
365	41.0	229.0
366	320.0	770.0
367	191.0	805.0
368	767.0	162.0
369	72.0	237.0
370	491.0	176.0
371	716.0	497.0
372	391.0	682.0
373	828.0	526.0
374	457.0	274.0
375	934.0	814.0
376	33.0	480.0
377	765.0	225.0
378	337.0	209.0
379	903.0	78.0
380	223.0	461.0
381	668.0	475.0
382	201.0	270.0
383	261.0	879.0
384	697.0	920.0
385	152.0	937.0
386	573.0	385.0
387	724.0	568.0
388	892.0	43.0
389	159.0	283.0
390	931.0	623.0
391	585.0	768.0
392	449.0	408.0
393	459.0	705.0
394	203.0	692.0
395	215.0	862.0
396	712.0	480.0
397	150.0	407.0
398	274.0	443.0
399	565.0	501.0
400	230.0	119.0
401	157.0	111.0
402	481.0	368.0
403	662.0	102.0
404	252.0	72.0
405	737.0	554.0
406	111.0	96.0
407	110.0	348.0
408	232.0	480.0
409	970.0	989.0
410	910.0	901.0
411	598.0	686.0
412	327.0	371.0
413	267.0	682.0
414	571.0	194.0
415	383.0	829.0
416	897.0	166.0
417	869.0	417.0
418	244.0	30.0
419	809.0	255.0
420	4.0	177.0
421	340.0	996.0
422	32.0	602.0
423	793.0	712.0
424	916.0	104.0
425	77.0	731.0
426	489.0	744.0
427	330.0	707.0
428	600.0	540.0
429	803.0	954.0
430	123.0	430.0
431	998.0	17.0
432	229.0	468.0
433	67.0	511.0
434	897.0	279.0
435	448.0	185.0
436	680.0	762.0
437	752.0	263.0
438	724.0	44.0
439	911.0	15.0
440	29.0	685.0
441	563.0	589.0
442	972.0	125.0
443	696.0	82.0
444	61.0	393.0
445	536.0	881.0
446	963.0	57.0
447	690.0	225.0
448	759.0	430.0
449	535.0	47.0
450	468.0	19.0
451	860.0	45.0
452	810.0	233.0
453	753.0	13.0
454	217.0	331.0
455	747.0	415.0
456	106.0	630.0
457	207.0	218.0
458	389.0	952.0
459	974.0	969.0
460	242.0	335.0
461	249.0	118.0
462	118.0	982.0
463	741.0	606.0
464	15.0	459.0
465	52.0	684.0
466	990.0	159.0
467	325.0	995.0
468	926.0	999.0
469	123.0	903.0
470	544.0	369.0
471	582.0	67.0
472	676.0	344.0
473	793.0	276.0
474	774.0	131.0
475	447.0	520.0
476	675.0	775.0
477	723.0	323.0
478	624.0	108.0
479	431.0	317.0
480	531.0	961.0
481	401.0	76.0
482	493.0	604.0
483	125.0	188.0
484	558.0	463.0
485	646.0	587.0
486	736.0	62.0
487	698.0	127.0
488	270.0	234.0
489	100.0	418.0
490	154.0	568.0
491	396.0	895.0
492	890.0	116.0
493	740.0	150.0
494	509.0	345.0
495	42.0	516.0
496	837.0	341.0
497	363.0	882.0
498	9.0	260.0
499	543.0	783.0
500	238.0	33.0
501	101.0	723.0
502	823.0	319.0
503	376.0	753.0
504	421.0	707.0
505	912.0	300.0
506	564.0	169.0
507	101.0	247.0
508	418.0	767.0
509	79.0	258.0
510	806.0	598.0
511	857.0	357.0
512	465.0	7.0
513	718.0	756.0
514	571.0	33.0
515	858.0	934.0
516	498.0	115.0
517	270.0	966.0
518	837.0	44.0
519	897.0	98.0
520	659.0	168.0
521	6.0	579.0
522	33.0	841.0
523	846.0	736.0
524	792.0	131.0
525	524.0	301.0
526	545.0	773.0
527	154.0	997.0
528	945.0	365.0
529	248.0	354.0
530	206.0	831.0
531	351.0	798.0
532	868.0	116.0
533	936.0	974.0
534	809.0	145.0
535	542.0	321.0
536	515.0	23.0
537	167.0	912.0
538	594.0	490.0
539	910.0	515.0
540	542.0	619.0
541	855.0	937.0
542	758.0	776.0
543	217.0	592.0
544	810.0	821.0
545	735.0	333.0
546	950.0	557.0
547	305.0	532.0
548	880.0	441.0
549	877.0	400.0
550	771.0	528.0
551	592.0	578.0
552	520.0	681.0
553	175.0	953.0
554	276.0	21.0
555	574.0	742.0
556	199.0	633.0
557	852.0	821.0
558	476.0	514.0
559	326.0	299.0
560	589.0	781.0
561	960.0	350.0
562	830.0	120.0
563	0.0	291.0
564	65.0	496.0
565	877.0	905.0
566	753.0	97.0
567	329.0	24.0
568	207.0	545.0
569	811.0	359.0
570	113.0	342.0
571	120.0	573.0
572	295.0	581.0
573	298.0	609.0
574	731.0	893.0
575	763.0	273.0
576	816.0	651.0
577	702.0	61.0
578	880.0	426.0
579	719.0	232.0
580	955.0	689.0
581	715.0	141.0
582	788.0	762.0
583	34.0	817.0
584	105.0	22.0
585	857.0	788.0
586	134.0	359.0
587	831.0	163.0
588	361.0	870.0
589	975.0	958.0
590	553.0	819.0
591	807.0	673.0
592	19.0	838.0
593	746.0	121.0
594	130.0	380.0
595	741.0	511.0
596	80.0	424.0
597	173.0	767.0
598	906.0	426.0
599	990.0	111.0
600	748.0	520.0
601	92.0	895.0
602	371.0	978.0
603	986.0	670.0
604	929.0	905.0
605	661.0	524.0
606	974.0	197.0
607	742.0	652.0
608	732.0	747.0
609	870.0	188.0
610	612.0	890.0
611	348.0	284.0
612	973.0	109.0
613	34.0	437.0
614	137.0	997.0
615	474.0	63.0
616	665.0	444.0
617	300.0	335.0
618	856.0	104.0
619	866.0	249.0
620	528.0	91.0
621	140.0	964.0
622	25.0	937.0
623	848.0	367.0
624	486.0	786.0
625	857.0	918.0
626	357.0	860.0
627	823.0	709.0
628	162.0	150.0
629	77.0	809.0
630	516.0	380.0
631	772.0	832.0
632	387.0	199.0
633	261.0	767.0
634	619.0	645.0
635	754.0	57.0
636	692.0	838.0
637	193.0	932.0
638	738.0	941.0
639	406.0	976.0
640	811.0	360.0
641	487.0	965.0
642	396.0	197.0
643	444.0	940.0
644	182.0	954.0
645	85.0	539.0
646	70.0	483.0
647	161.0	570.0
648	447.0	194.0
649	757.0	845.0
650	692.0	506.0
651	930.0	251.0
652	950.0	549.0
653	601.0	86.0
654	143.0	117.0
655	698.0	634.0
656	238.0	877.0
657	543.0	987.0
658	761.0	809.0
659	494.0	134.0
660	562.0	925.0
661	838.0	282.0
662	834.0	210.0
663	926.0	436.0
664	375.0	833.0
665	568.0	225.0
666	106.0	594.0
667	675.0	986.0
668	835.0	632.0
669	144.0	83.0
670	272.0	373.0
671	4.0	496.0
672	299.0	740.0
673	805.0	641.0
674	482.0	600.0
675	255.0	448.0
676	834.0	470.0
677	117.0	696.0
678	837.0	469.0
679	345.0	585.0
680	703.0	523.0
681	476.0	565.0
682	893.0	816.0
683	271.0	417.0
684	877.0	492.0
685	605.0	578.0
686	156.0	613.0
687	607.0	721.0
688	527.0	358.0
689	54.0	581.0
690	591.0	478.0
691	7.0	37.0
692	529.0	997.0
693	705.0	436.0
694	110.0	166.0
695	702.0	173.0
696	962.0	671.0
697	262.0	521.0
698	82.0	75.0
699	1000.0	703.0
700	607.0	536.0
701	764.0	227.0
702	827.0	744.0
703	788.0	463.0
704	450.0	136.0
705	72.0	466.0
706	119.0	348.0
707	32.0	58.0
708	178.0	910.0
709	381.0	159.0
710	686.0	207.0
711	276.0	358.0
712	683.0	682.0
713	708.0	748.0
714	707.0	282.0
715	141.0	999.0
716	558.0	169.0
717	403.0	688.0
718	315.0	671.0
719	827.0	880.0
720	601.0	481.0
721	641.0	950.0
722	98.0	116.0
723	611.0	668.0
724	313.0	616.0
725	928.0	521.0
726	595.0	498.0
727	350.0	295.0
728	397.0	963.0
729	595.0	904.0
730	798.0	339.0
731	978.0	460.0
732	260.0	800.0
733	302.0	615.0
734	653.0	302.0
735	5.0	126.0
736	512.0	800.0
737	541.0	691.0
738	559.0	690.0
739	24.0	21.0
740	465.0	522.0
741	125.0	178.0
742	868.0	947.0
743	204.0	141.0
744	636.0	919.0
745	703.0	643.0
746	385.0	155.0
747	790.0	245.0
748	244.0	833.0
749	244.0	666.0
750	870.0	543.0
751	606.0	359.0
752	712.0	497.0
753	553.0	343.0
754	532.0	975.0
755	555.0	276.0
756	165.0	33.0
757	757.0	787.0
758	537.0	457.0
759	120.0	51.0
760	932.0	958.0
761	815.0	623.0
762	502.0	636.0
763	859.0	508.0
764	42.0	675.0
765	10.0	496.0
766	999.0	300.0
767	908.0	736.0
768	735.0	980.0
769	459.0	564.0
770	49.0	877.0
771	483.0	587.0
772	945.0	557.0
773	602.0	2.0
774	633.0	936.0
775	379.0	182.0
776	814.0	486.0
777	710.0	500.0
778	178.0	687.0
779	466.0	406.0
780	186.0	732.0
781	381.0	762.0
782	69.0	478.0
783	193.0	411.0
784	109.0	653.0
785	40.0	10.0
786	142.0	303.0
787	90.0	111.0
788	334.0	499.0
789	443.0	482.0
790	187.0	290.0
791	262.0	691.0
792	814.0	908.0
793	171.0	930.0
794	446.0	214.0
795	893.0	96.0
796	205.0	410.0
797	137.0	120.0
798	115.0	986.0
799	745.0	541.0
800	368.0	926.0
801	77.0	338.0
DEMAND_SECTION
1	0
2	1
3	1
4	1
5	1
6	1
7	1
8	1
9	1
10	1
11	1
12	1
13	1
14	1
15	1
16	1
17	1
18	1
19	1
20	1
21	1
22	1
23	1
24	1
25	1
26	1
27	1
28	1
29	1
30	1
31	1
32	1
33	1
34	1
35	1
36	1
37	1
38	1
39	1
40	1
41	1
42	1
43	1
44	1
45	1
46	1
47	1
48	1
49	1
50	1
51	1
52	1
53	1
54	1
55	1
56	1
57	1
58	1
59	1
60	1
61	1
62	1
63	1
64	1
65	1
66	1
67	1
68	1
69	1
70	1
71	1
72	1
73	1
74	1
75	1
76	1
77	1
78	1
79	1
80	1
81	1
82	1
83	1
84	1
85	1
86	1
87	1
88	1
89	1
90	1
91	1
92	1
93	1
94	1
95	1
96	1
97	1
98	1
99	1
100	1
101	1
102	1
103	1
104	1
105	1
106	1
107	1
108	1
109	1
110	1
111	1
112	1
113	1
114	1
115	1
116	1
117	1
118	1
119	1
120	1
121	1
122	1
123	1
124	1
125	1
126	1
127	1
128	1
129	1
130	1
131	1
132	1
133	1
134	1
135	1
136	1
137	1
138	1
139	1
140	1
141	1
142	1
143	1
144	1
145	1
146	1
147	1
148	1
149	1
150	1
151	1
152	1
153	1
154	1
155	1
156	1
157	1
158	1
159	1
160	1
161	1
162	1
163	1
164	1
165	1
166	1
167	1
168	1
169	1
170	1
171	1
172	1
173	1
174	1
175	1
176	1
177	1
178	1
179	1
180	1
181	1
182	1
183	1
184	1
185	1
186	1
187	1
188	1
189	1
190	1
191	1
192	1
193	1
194	1
195	1
196	1
197	1
198	1
199	1
200	1
201	1
202	1
203	1
204	1
205	1
206	1
207	1
208	1
209	1
210	1
211	1
212	1
213	1
214	1
215	1
216	1
217	1
218	1
219	1
220	1
221	1
222	1
223	1
224	1
225	1
226	1
227	1
228	1
229	1
230	1
231	1
232	1
233	1
234	1
235	1
236	1
237	1
238	1
239	1
240	1
241	1
242	1
243	1
244	1
245	1
246	1
247	1
248	1
249	1
250	1
251	1
252	1
253	1
254	1
255	1
256	1
257	1
258	1
259	1
260	1
261	1
262	1
263	1
264	1
265	1
266	1
267	1
268	1
269	1
270	1
271	1
272	1
273	1
274	1
275	1
276	1
277	1
278	1
279	1
280	1
281	1
282	1
283	1
284	1
285	1
286	1
287	1
288	1
289	1
290	1
291	1
292	1
293	1
294	1
295	1
296	1
297	1
298	1
299	1
300	1
301	1
302	1
303	1
304	1
305	1
306	1
307	1
308	1
309	1
310	1
311	1
312	1
313	1
314	1
315	1
316	1
317	1
318	1
319	1
320	1
321	1
322	1
323	1
324	1
325	1
326	1
327	1
328	1
329	1
330	1
331	1
332	1
333	1
334	1
335	1
336	1
337	1
338	1
339	1
340	1
341	1
342	1
343	1
344	1
345	1
346	1
347	1
348	1
349	1
350	1
351	1
352	1
353	1
354	1
355	1
356	1
357	1
358	1
359	1
360	1
361	1
362	1
363	1
364	1
365	1
366	1
367	1
368	1
369	1
370	1
371	1
372	1
373	1
374	1
375	1
376	1
377	1
378	1
379	1
380	1
381	1
382	1
383	1
384	1
385	1
386	1
387	1
388	1
389	1
390	1
391	1
392	1
393	1
394	1
395	1
396	1
397	1
398	1
399	1
400	1
401	1
402	1
403	1
404	1
405	1
406	1
407	1
408	1
409	1
410	1
411	1
412	1
413	1
414	1
415	1
416	1
417	1
418	1
419	1
420	1
421	1
422	1
423	1
424	1
425	1
426	1
427	1
428	1
429	1
430	1
431	1
432	1
433	1
434	1
435	1
436	1
437	1
438	1
439	1
440	1
441	1
442	1
443	1
444	1
445	1
446	1
447	1
448	1
449	1
450	1
451	1
452	1
453	1
454	1
455	1
456	1
457	1
458	1
459	1
460	1
461	1
462	1
463	1
464	1
465	1
466	1
467	1
468	1
469	1
470	1
471	1
472	1
473	1
474	1
475	1
476	1
477	1
478	1
479	1
480	1
481	1
482	1
483	1
484	1
485	1
486	1
487	1
488	1
489	1
490	1
491	1
492	1
493	1
494	1
495	1
496	1
497	1
498	1
499	1
500	1
501	1
502	1
503	1
504	1
505	1
506	1
507	1
508	1
509	1
510	1
511	1
512	1
513	1
514	1
515	1
516	1
517	1
518	1
519	1
520	1
521	1
522	1
523	1
524	1
525	1
526	1
527	1
528	1
529	1
530	1
531	1
532	1
533	1
534	1
535	1
536	1
537	1
538	1
539	1
540	1
541	1
542	1
543	1
544	1
545	1
546	1
547	1
548	1
549	1
550	1
551	1
552	1
553	1
554	1
555	1
556	1
557	1
558	1
559	1
560	1
561	1
562	1
563	1
564	1
565	1
566	1
567	1
568	1
569	1
570	1
571	1
572	1
573	1
574	1
575	1
576	1
577	1
578	1
579	1
580	1
581	1
582	1
583	1
584	1
585	1
586	1
587	1
588	1
589	1
590	1
591	1
592	1
593	1
594	1
595	1
596	1
597	1
598	1
599	1
600	1
601	1
602	1
603	1
604	1
605	1
606	1
607	1
608	1
609	1
610	1
611	1
612	1
613	1
614	1
615	1
616	1
617	1
618	1
619	1
620	1
621	1
622	1
623	1
624	1
625	1
626	1
627	1
628	1
629	1
630	1
631	1
632	1
633	1
634	1
635	1
636	1
637	1
638	1
639	1
640	1
641	1
642	1
643	1
644	1
645	1
646	1
647	1
648	1
649	1
650	1
651	1
652	1
653	1
654	1
655	1
656	1
657	1
658	1
659	1
660	1
661	1
662	1
663	1
664	1
665	1
666	1
667	1
668	1
669	1
670	1
671	1
672	1
673	1
674	1
675	1
676	1
677	1
678	1
679	1
680	1
681	1
682	1
683	1
684	1
685	1
686	1
687	1
688	1
689	1
690	1
691	1
692	1
693	1
694	1
695	1
696	1
697	1
698	1
699	1
700	1
701	1
702	1
703	1
704	1
705	1
706	1
707	1
708	1
709	1
710	1
711	1
712	1
713	1
714	1
715	1
716	1
717	1
718	1
719	1
720	1
721	1
722	1
723	1
724	1
725	1
726	1
727	1
728	1
729	1
730	1
731	1
732	1
733	1
734	1
735	1
736	1
737	1
738	1
739	1
740	1
741	1
742	1
743	1
744	1
745	1
746	1
747	1
748	1
749	1
750	1
751	1
752	1
753	1
754	1
755	1
756	1
757	1
758	1
759	1
760	1
761	1
762	1
763	1
764	1
765	1
766	1
767	1
768	1
769	1
770	1
771	1
772	1
773	1
774	1
775	1
776	1
777	1
778	1
779	1
780	1
781	1
782	1
783	1
784	1
785	1
786	1
787	1
788	1
789	1
790	1
791	1
792	1
793	1
794	1
795	1
796	1
797	1
798	1
799	1
800	1
801	1
DEPOT_SECTION
1
-1
EOF
